Version identifier: 22.1.0.0 | 2022-03-09 | 1a383f8ce
CPXPARAM_Threads                                 1
CPXPARAM_MIP_Strategy_VariableSelect             3
CPXPARAM_TimeLimit                               598.589484212
1 of 1 MIP starts provided solutions.
MIP start 'm1' defined initial solution with objective 187.0000.
Tried aggregator 2 times.
MIP Presolve eliminated 37 rows and 1 columns.
MIP Presolve added 32 rows and 8 columns.
MIP Presolve modified 73 coefficients.
Aggregator did 8 substitutions.
Reduced MIP has 1212 rows, 5000 columns, and 72772 nonzeros.
Reduced MIP has 5000 binaries, 0 generals, 0 SOSs, and 0 indicators.
Presolve time = 0.09 sec. (128.24 ticks)
Probing time = 0.02 sec. (15.05 ticks)
Tried aggregator 1 time.
Detecting symmetries...
MIP Presolve modified 14 coefficients.
Reduced MIP has 1212 rows, 5000 columns, and 73148 nonzeros.
Reduced MIP has 5000 binaries, 0 generals, 0 SOSs, and 0 indicators.
Presolve time = 0.06 sec. (84.04 ticks)
Probing time = 0.02 sec. (15.09 ticks)
Clique table members: 796.
MIP emphasis: balance optimality and feasibility.
MIP search method: dynamic search.
Parallel mode: none, using 1 thread.
Root relaxation solution time = 0.95 sec. (1142.80 ticks)

        Nodes                                         Cuts/
   Node  Left     Objective  IInf  Best Integer    Best Bound    ItCnt     Gap

*     0+    0                          187.0000    20100.0000              --- 
      0     0      200.0000   861      187.0000      200.0000     4246    6.95%
      0     0      200.0000   515      187.0000       Cuts: 5     8137    6.95%
      0     0      200.0000   383      187.0000       Cuts: 6    10121    6.95%
      0     0      200.0000   374      187.0000      Cuts: 11    13785    6.95%
      0     0      200.0000   418      187.0000      Cuts: 11    16324    6.95%
      0     0      200.0000   531      187.0000      Cuts: 11    20442    6.95%
Detecting symmetries...
Detecting symmetries...
      0     2      200.0000   316      187.0000      200.0000    20442    6.95%
Elapsed time = 40.13 sec. (44176.13 ticks, tree = 0.01 MB, solutions = 1)
      1     3      200.0000   459      187.0000      200.0000    26426    6.95%
      2     4      200.0000   508      187.0000      200.0000    29557    6.95%
      3     5      200.0000   691      187.0000      200.0000    35749    6.95%
      4     6      200.0000   441      187.0000      200.0000    35930    6.95%
      5     7      200.0000   489      187.0000      200.0000    37068    6.95%
      7     9      200.0000   490      187.0000      200.0000    42284    6.95%
      8     9      200.0000   765      187.0000      200.0000    42839    6.95%
      9     9      199.6674   745      187.0000      200.0000    52531    6.95%
     10    10      200.0000   475      187.0000      200.0000    52732    6.95%
     13    11      200.0000   377      187.0000      200.0000    60402    6.95%
Elapsed time = 52.89 sec. (57478.50 ticks, tree = 0.08 MB, solutions = 1)
     16    11      200.0000   383      187.0000      200.0000    62203    6.95%
     20    12      200.0000   374      187.0000      200.0000    62859    6.95%
     26    15      200.0000   384      187.0000      200.0000    65972    6.95%
     27    15      199.9048   534      187.0000      200.0000    71805    6.95%
     28    15      200.0000   536      187.0000      200.0000    75095    6.95%
     31    17      200.0000   357      187.0000      200.0000    79273    6.95%
     32    18      200.0000   360      187.0000      200.0000    85011    6.95%
     34    20      200.0000   350      187.0000      200.0000    90984    6.95%
     36    22      200.0000   309      187.0000      200.0000    95023    6.95%
     39    24      199.0514   556      187.0000      200.0000   102823    6.95%
Elapsed time = 66.35 sec. (71573.74 ticks, tree = 0.19 MB, solutions = 1)
     41    26      200.0000   308      187.0000      200.0000   106217    6.95%
     42    27      200.0000   296      187.0000      200.0000   112547    6.95%
     43    28      200.0000   249      187.0000      200.0000   117324    6.95%
     46    29      199.8889   537      187.0000      200.0000   127109    6.95%
     48    31      200.0000   245      187.0000      200.0000   132131    6.95%
     49    32      200.0000   416      187.0000      200.0000   136516    6.95%
     50    33      200.0000   415      187.0000      200.0000   140602    6.95%
     52    34      200.0000   395      187.0000      200.0000   143609    6.95%
     53    35      200.0000   413      187.0000      200.0000   147806    6.95%
     55    36      200.0000   383      187.0000      200.0000   154845    6.95%
Elapsed time = 79.34 sec. (85015.07 ticks, tree = 0.30 MB, solutions = 1)
     58    37      199.8155   453      187.0000      200.0000   159051    6.95%
     60    38      200.0000   367      187.0000      200.0000   163286    6.95%
     64    42      200.0000   319      187.0000      200.0000   166527    6.95%
     66    43      199.0000   479      187.0000      200.0000   174673    6.95%
     68    45      200.0000   396      187.0000      200.0000   182673    6.95%
     70    45      199.0000   389      187.0000      200.0000   190382    6.95%
     72    46      199.0000   356      187.0000      200.0000   195313    6.95%
     74    47      199.0000   313      187.0000      200.0000   201224    6.95%
     78    49      198.0000   340      187.0000      200.0000   203953    6.95%
     81    52      199.0000   279      187.0000      200.0000   205532    6.95%
Elapsed time = 94.13 sec. (99692.57 ticks, tree = 0.42 MB, solutions = 1)
     85    55      199.0000   273      187.0000      200.0000   208903    6.95%
     90    57      199.0000   272      187.0000      200.0000   212128    6.95%
     95    61      199.0000   223      187.0000      200.0000   214949    6.95%
     99    63      199.0000   267      187.0000      200.0000   218991    6.95%
    102    64      198.0000   203      187.0000      200.0000   223935    6.95%
    106    68      198.0000   134      187.0000      200.0000   229287    6.95%
    112    71      197.7500   294      187.0000      200.0000   233882    6.95%
    116    73      197.6000   297      187.0000      200.0000   239617    6.95%
    121    76      198.0000   193      187.0000      200.0000   243903    6.95%
    126    79      198.0000   168      187.0000      200.0000   248839    6.95%
Elapsed time = 106.28 sec. (111225.01 ticks, tree = 0.75 MB, solutions = 1)
    130    81      197.0000   236      187.0000      200.0000   256208    6.95%
    136    87      197.0000   223      187.0000      200.0000   259735    6.95%
    141    91      197.0000   191      187.0000      200.0000   263284    6.95%
    145    94      197.0000   193      187.0000      200.0000   268780    6.95%
    149    97      196.1579   266      187.0000      200.0000   274071    6.95%
    154   100      196.9783   239      187.0000      200.0000   280585    6.95%
    159   105      197.0000   140      187.0000      200.0000   285672    6.95%
    166   110      196.0000   151      187.0000      200.0000   290436    6.95%
    175   116      195.0000   168      187.0000      200.0000   294268    6.95%
    182   123      195.0000   204      187.0000      200.0000   296839    6.95%
Elapsed time = 118.05 sec. (122076.70 ticks, tree = 1.25 MB, solutions = 1)
    189   126      194.0000   166      187.0000      200.0000   301200    6.95%
    200   130      194.0000   144      187.0000      200.0000   305246    6.95%
    213   129    infeasible            187.0000      200.0000   310991    6.95%
    223   133      194.0000   111      187.0000      200.0000   315196    6.95%
    226   131      199.0000   490      187.0000      200.0000   326540    6.95%
    231   136      199.0000   317      187.0000      200.0000   328264    6.95%
    234   139      199.0000   460      187.0000      200.0000   331744    6.95%
    238   143      199.0000   419      187.0000      200.0000   335341    6.95%
    241   146      199.0000   394      187.0000      200.0000   337977    6.95%
    244   148      199.0000   405      187.0000      200.0000   342879    6.95%
Elapsed time = 131.82 sec. (135407.52 ticks, tree = 1.54 MB, solutions = 1)
    247   151      199.0000   425      187.0000      200.0000   345824    6.95%
    251   155      199.0000   426      187.0000      200.0000   349869    6.95%
    255   158      199.0000   398      187.0000      200.0000   351771    6.95%
    258   160      198.0000   348      187.0000      200.0000   356935    6.95%
    260   161      199.0000   438      187.0000      200.0000   358984    6.95%
    263   163      199.0000   384      187.0000      200.0000   363946    6.95%
    266   165      199.0000   423      187.0000      200.0000   367281    6.95%
    269   167      199.0000   353      187.0000      200.0000   371616    6.95%
    272   169      198.0000   401      187.0000      200.0000   378016    6.95%
    275   171      199.0000   350      187.0000      200.0000   382140    6.95%
Elapsed time = 144.25 sec. (147557.94 ticks, tree = 1.82 MB, solutions = 1)
    278   172      198.3333   425      187.0000      200.0000   386520    6.95%
    280   173      199.0000   386      187.0000      200.0000   388633    6.95%
    284   176      199.0000   413      187.0000      200.0000   391864    6.95%
    288   179      199.0000   447      187.0000      200.0000   395520    6.95%
    293   182      198.0000   283      187.0000      200.0000   398673    6.95%
    299   182      198.0000   278      187.0000      200.0000   399454    6.95%
    305   184      198.0000   264      187.0000      200.0000   401375    6.95%
    309   186      197.2353   354      187.0000      200.0000   407821    6.95%
    313   188      198.0000   287      187.0000      200.0000   409918    6.95%
    319   188      198.0000   298      187.0000      200.0000   411469    6.95%
Elapsed time = 156.35 sec. (159180.31 ticks, tree = 2.03 MB, solutions = 1)
    323   190      197.6000   354      187.0000      200.0000   413417    6.95%
    329   190      198.0000   294      187.0000      200.0000   414694    6.95%
    335   192      198.0000   322      187.0000      200.0000   417642    6.95%
    339   195      198.0000   293      187.0000      200.0000   421399    6.95%
    342   197      198.0000   281      187.0000      200.0000   423822    6.95%
    345   198      198.0000   269      187.0000      200.0000   428307    6.95%
    349   200      198.0000   319      187.0000      200.0000   432090    6.95%
    355   201      196.8028   282      187.0000      200.0000   435358    6.95%
    362   202      198.0000   254      187.0000      200.0000   436321    6.95%
    379   211      194.0000   210      187.0000      200.0000   448405    6.95%
Elapsed time = 170.88 sec. (172962.46 ticks, tree = 2.29 MB, solutions = 1)
    407   234      194.0000   197      187.0000      200.0000   456162    6.95%
    436   253      199.0000   567      187.0000      200.0000   474745    6.95%
    443   259      199.0000   411      187.0000      200.0000   485454    6.95%
    455   264      198.0000   338      187.0000      200.0000   494891    6.95%
    466   268      198.0000   317      187.0000      200.0000   508308    6.95%
    479   278      196.0000   190      187.0000      200.0000   522803    6.95%
    506   292    infeasible            187.0000      200.0000   537936    6.95%
    520   294      199.0000   466      187.0000      200.0000   551678    6.95%
    528   300      199.0000   447      187.0000      200.0000   563670    6.95%
    534   303      199.0000   444      187.0000      200.0000   579002    6.95%
Elapsed time = 215.64 sec. (216174.10 ticks, tree = 3.40 MB, solutions = 1)
    549   308      199.0000   378      187.0000      200.0000   586405    6.95%
    564   315      199.0000   316      187.0000      200.0000   592553    6.95%
    577   320      199.0000   308      187.0000      200.0000   603330    6.95%
    590   324      199.0000   299      187.0000      200.0000   613317    6.95%
    606   329      199.0000   310      187.0000      200.0000   621792    6.95%
    623   333      199.0000   251      187.0000      200.0000   630336    6.95%
    637   337      199.0000   283      187.0000      200.0000   641354    6.95%
    645   337      199.0000   303      187.0000      200.0000   658323    6.95%
    656   342      198.2739   422      187.0000      200.0000   675832    6.95%
    672   345      198.0000   346      187.0000      200.0000   685915    6.95%
Elapsed time = 256.55 sec. (255933.79 ticks, tree = 3.90 MB, solutions = 1)
    697   364      190.0000   168      187.0000      200.0000   691605    6.95%
    741   405      190.0000   128      187.0000      200.0000   699893    6.95%
    794   420      199.0000   426      187.0000      200.0000   713555    6.95%
    806   427      199.0000   312      187.0000      200.0000   724016    6.95%
    818   435      199.0000   284      187.0000      200.0000   736108    6.95%
    830   440      199.0000   234      187.0000      200.0000   747698    6.95%
    843   444      199.0000   250      187.0000      200.0000   760253    6.95%
    852   447      198.5455   397      187.0000      200.0000   775552    6.95%
    866   450      198.0000   285      187.0000      200.0000   789756    6.95%
    875   453      197.0000   349      187.0000      200.0000   805001    6.95%
Elapsed time = 298.51 sec. (296058.59 ticks, tree = 5.17 MB, solutions = 1)
    887   462      197.0000   209      187.0000      200.0000   823071    6.95%
    897   467      196.0000   210      187.0000      200.0000   847548    6.95%
    914   472      196.0000   198      187.0000      200.0000   869698    6.95%
    938   477      199.9649   576      187.0000      200.0000   898409    6.95%
    945   483      199.0000   428      187.0000      200.0000   910150    6.95%
    958   489      199.0000   333      187.0000      200.0000   919714    6.95%
    970   493      199.0000   331      187.0000      200.0000   930115    6.95%
    983   497      198.1824   347      187.0000      200.0000   943054    6.95%
    997   501      199.0000   355      187.0000      200.0000   953954    6.95%
   1012   504      199.0000   311      187.0000      200.0000   963671    6.95%
Elapsed time = 341.28 sec. (336577.97 ticks, tree = 5.78 MB, solutions = 1)
   1026   507      199.0000   295      187.0000      200.0000   979092    6.95%
   1044   521      193.0000   200      187.0000      200.0000   987475    6.95%
   1073   545      193.0000   131      187.0000      200.0000   996235    6.95%
   1112   561      193.0000   148      187.0000      200.0000  1005542    6.95%
   1159   566      193.0000   201      187.0000      200.0000  1018379    6.95%
   1170   567      198.0000   422      187.0000      200.0000  1032586    6.95%
   1183   577      198.0000   380      187.0000      200.0000  1042620    6.95%
   1196   583      197.0000   254      187.0000      200.0000  1055434    6.95%
   1215   588      196.0000   244      187.0000      200.0000  1067207    6.95%
   1246   603      193.0000   109      187.0000      200.0000  1078180    6.95%
Elapsed time = 383.46 sec. (375671.18 ticks, tree = 6.98 MB, solutions = 1)
*  1272   607      integral     0      189.0000      200.0000  1082046    5.82%
   1276   608      199.0000   395      189.0000      200.0000  1090757    5.82%
   1280   611      199.0000   494      189.0000      200.0000  1098801    5.82%
   1292   615      199.0000   422      189.0000      200.0000  1107743    5.82%
   1309   618      199.0000   350      189.0000      200.0000  1113684    5.82%
   1325   622      198.0000   242      189.0000      200.0000  1123095    5.82%
   1342   625      198.0000   236      189.0000      200.0000  1132592    5.82%
   1359   634      194.0000   210      189.0000      200.0000  1147995    5.82%
   1384   636      194.0000   191      189.0000      200.0000  1170624    5.82%
   1397   639      199.0000   425      189.0000      200.0000  1188092    5.82%
   1410   650      198.0000   227      189.0000      200.0000  1198140    5.82%
Elapsed time = 427.68 sec. (417873.07 ticks, tree = 7.54 MB, solutions = 2)
   1424   658      197.0000   249      189.0000      200.0000  1208818    5.82%
   1442   668      195.0000   167      189.0000      200.0000  1220661    5.82%
   1480   684      192.0000    79      189.0000      200.0000  1231349    5.82%
   1517   705      199.0000   573      189.0000      200.0000  1243541    5.82%
   1522   709      199.0000   482      189.0000      200.0000  1246800    5.82%
   1534   716      198.9712   477      189.0000      200.0000  1257910    5.82%
   1536   716      199.0000   557      189.0000      200.0000  1267789    5.82%
   1537   716      199.0000   428      189.0000      200.0000  1273322    5.82%

Performing restart 1

Repeating presolve.
Tried aggregator 1 time.
MIP Presolve eliminated 0 rows and 194 columns.
MIP Presolve modified 14037 coefficients.
Reduced MIP has 1212 rows, 4806 columns, and 48394 nonzeros.
Reduced MIP has 4806 binaries, 0 generals, 0 SOSs, and 0 indicators.
Presolve time = 0.04 sec. (38.36 ticks)
Tried aggregator 1 time.
MIP Presolve eliminated 0 rows and 371 columns.
Reduced MIP has 1212 rows, 4435 columns, and 43037 nonzeros.
Reduced MIP has 4435 binaries, 0 generals, 0 SOSs, and 0 indicators.
Presolve time = 0.03 sec. (21.24 ticks)
Tried aggregator 1 time.
Reduced MIP has 1212 rows, 4435 columns, and 43037 nonzeros.
Reduced MIP has 4435 binaries, 0 generals, 0 SOSs, and 0 indicators.
Presolve time = 0.03 sec. (25.11 ticks)
Represolve time = 0.42 sec. (265.60 ticks)
   1538     0      199.0000   902      189.0000     Cuts: 323  1282522    5.29%
   1538     0      199.0000   919      189.0000     Cuts: 310  1288338    5.29%
   1538     0      199.0000   608      189.0000       Cuts: 6  1289550    5.29%
   1538     0      199.0000   631      189.0000     Cuts: 140  1295097    5.29%
   1538     0      199.0000   343      189.0000   ZeroHalf: 4  1297449    5.29%
   1538     0      199.0000   525      189.0000     Cuts: 138  1301083    5.29%
   1538     0      199.0000   500      189.0000      Cuts: 16  1303403    5.29%
   1538     0      199.0000   588      189.0000     Cuts: 148  1306406    5.29%
   1538     2      199.0000   337      189.0000      199.0000  1306406    5.29%
   1542     6      199.0000   536      189.0000      199.0000  1325504    5.29%
Elapsed time = 542.61 sec. (524961.07 ticks, tree = 0.01 MB, solutions = 2)
   1548    12      199.0000   864      189.0000      199.0000  1338456    5.29%
   1553    17      199.0000   459      189.0000      199.0000  1352473    5.29%
   1561    24      199.0000   697      189.0000      199.0000  1365992    5.29%
   1568    29      198.0000   585      189.0000      199.0000  1379845    5.29%
   1571    32      199.0000   269      189.0000      199.0000  1395868    5.29%
   1577    38      199.0000   363      189.0000      199.0000  1420696    5.29%
   1586    47      199.0000   384      189.0000      199.0000  1444832    5.29%
   1598    58      190.0000   354      189.0000      199.0000  1458303    5.29%
   1631    91      190.0000   263      189.0000      199.0000  1468849    5.29%
Starting limited solution polishing.
   1638    98      190.0000   251      189.0000      199.0000  1470804    5.29%
Elapsed time = 596.57 sec. (576646.53 ticks, tree = 0.30 MB, solutions = 2)

Clique cuts applied:  55
Zero-half cuts applied:  89
Lift and project cuts applied:  1
Gomory fractional cuts applied:  5

Root node processing (before b&c):
  Real time             =   40.06 sec. (44116.68 ticks)
Sequential b&c:
  Real time             =  558.53 sec. (534324.13 ticks)
                          ------------
Total (root+branch&cut) =  598.59 sec. (578440.81 ticks)
Primal:	189
Dual:	199
Status:	Feasible
Time:	598.59
Sequence:
	20
	7
	15
	6
	10
	14
	6
	5
	17
	6
	16
	8
	17
	5
	17
	6
	15
	6
	14
	6
	17
	2
	19
	9
	14
	10
	14
	8
	18
	2
	17
	8
	14
	7
	16
	8
	17
	4
	17
	7
	14
	4
	14
	8
	17
	3
	17
	8
	16
	6
	15
	11
	14
	6
	19
	2
	18
	8
	14
	10
	8
	14
	13
	6
	14
	6
	19
	2
	18
	8
	16
	6
	19
	3
	17
	8
	16
	8
	17
	3
	19
	6
	16
	8
	18
	4
	17
	6
	14
	7
	6
	16
	8
	15
	6
	7
	14
	10
	14
	8
	20
	1
	17
	10
	15
	6
	20
	0
	19
	12
	14
	6
	17
	5
	19
	6
	14
	6
	20
	0
	17
	6
	4
	17
	9
	14
	10
	14
	8
	12
	14
	6
	17
	5
	17
	8
	14
	6
	16
	7
	14
	12
	15
	6
	20
	0
	14
	10
	15
	8
	16
	6
	14
	10
	17
	1
	22
	6
	14
	10
	15
	6
	11
	15
	6
	16
	8
	18
	4
	17
	6
	16
	9
	17
	4
	17
	6
	14
	9
	10
	14
	8
	16
	8
	14
	10
	14
	9
	12
